presolving:
(round 1, fast)       496 del vars, 842 del conss, 0 add conss, 150 chg bounds, 0 chg sides, 0 chg coeffs, 0 upgd conss, 0 impls, 7057 clqs
   (0.8s) running MILP presolver
   (2.7s) MILP presolver (2 rounds): 3500 aggregations, 94500 fixings, 0 bound changes
(round 2, medium)     98546 del vars, 7927 del conss, 3585 add conss, 150 chg bounds, 0 chg sides, 0 chg coeffs, 0 upgd conss, 0 impls, 3557 clqs
(round 3, exhaustive) 98546 del vars, 7927 del conss, 3585 add conss, 150 chg bounds, 0 chg sides, 0 chg coeffs, 3585 upgd conss, 0 impls, 3557 clqs
   (3.0s) probing: 51/3535 (1.4%) - 0 fixings, 0 aggregations, 0 implications, 0 bound changes
   (3.0s) probing aborted: 50/50 successive totally useless probings
   (3.0s) symmetry computation started: requiring (bin +, int -, cont +), (fixed: bin -, int +, cont -)
   (3.0s) no symmetry present
presolving (4 rounds: 4 fast, 3 medium, 2 exhaustive):
 98546 deleted vars, 7927 deleted constraints, 3585 added constraints, 150 tightened bounds, 0 added holes, 0 changed sides, 37 changed coefficients
 0 implications, 3557 cliques
presolved problem has 3535 variables (3535 bin, 0 int, 0 impl, 0 cont) and 3585 constraints
     35 constraints of type <knapsack>
   3500 constraints of type <setppc>
     50 constraints of type <logicor>
Presolving Time: 2.66

 time | node  | left  |LP iter|LP it/n|mem/heur|mdpt |vars |cons |rows |cuts |sepa|confs|strbr|  dualbound   | primalbound  |  gap   | compl. 
p 3.2s|     1 |     0 |     4 |     - |   locks|   0 |3535 |3586 |3585 |   0 |  0 |   0 |   0 | 1.055818e+07 | 1.762111e+07 |  66.90%| unknown
i 3.3s|     1 |     0 |     4 |     - |  oneopt|   0 |3535 |3678 |3585 |   0 |  0 |  92 |   0 | 1.055818e+07 | 1.760951e+07 |  66.79%| unknown
  3.3s|     1 |     0 |    78 |     - |   310M |   0 |3535 |3678 |3585 |   0 |  0 |  92 |   0 | 1.709275e+07 | 1.760951e+07 |   3.02%| unknown
r 3.4s|     1 |     0 |    78 |     - |shifting|   0 |3535 |3678 |3585 |   0 |  0 |  92 |   0 | 1.709275e+07 | 1.713855e+07 |   0.27%| unknown
  3.5s|     1 |     0 |   223 |     - |   312M |   0 |3535 |3678 |3619 |  34 |  1 |  92 |   0 | 1.710954e+07 | 1.713855e+07 |   0.17%| unknown
  3.5s|     1 |     0 |   223 |     - |   312M |   0 |3535 |3678 |1724 |  34 |  1 |  92 |   0 | 1.710954e+07 | 1.713855e+07 |   0.17%| unknown
  3.6s|     1 |     0 |   252 |     - |   312M |   0 |3535 |1783 |1742 |  52 |  2 |  92 |   0 | 1.711312e+07 | 1.713855e+07 |   0.15%| unknown
  3.6s|     1 |     0 |   252 |     - |   312M |   0 |3535 |1783 |1441 |  52 |  2 |  92 |   0 | 1.711312e+07 | 1.713855e+07 |   0.15%| unknown
  3.6s|     1 |     0 |   285 |     - |   312M |   0 |3535 |1482 |1456 |  67 |  3 |  92 |   0 | 1.711356e+07 | 1.713855e+07 |   0.15%| unknown
  3.7s|     1 |     0 |   336 |     - |   315M |   0 |3535 |1482 |1471 |  82 |  4 |  92 |   0 | 1.711431e+07 | 1.713855e+07 |   0.14%| unknown
  3.7s|     1 |     0 |   336 |     - |   315M |   0 |3535 |1482 |1371 |  82 |  4 |  92 |   0 | 1.711431e+07 | 1.713855e+07 |   0.14%| unknown
  3.8s|     1 |     0 |   394 |     - |   316M |   0 |3535 |1382 |1385 |  96 |  5 |  92 |   0 | 1.711478e+07 | 1.713855e+07 |   0.14%| unknown
  4.0s|     1 |     0 |   442 |     - |   317M |   0 |3535 |1382 |1397 | 108 |  6 |  92 |   0 | 1.711607e+07 | 1.713855e+07 |   0.13%| unknown
  4.0s|     1 |     0 |   442 |     - |   317M |   0 |3535 |1382 |1296 | 108 |  6 |  92 |   0 | 1.711607e+07 | 1.713855e+07 |   0.13%| unknown
  4.1s|     1 |     0 |   498 |     - |   319M |   0 |3535 |1281 |1307 | 119 |  7 |  92 |   0 | 1.711726e+07 | 1.713855e+07 |   0.12%| unknown
 time | node  | left  |LP iter|LP it/n|mem/heur|mdpt |vars |cons |rows |cuts |sepa|confs|strbr|  dualbound   | primalbound  |  gap   | compl. 
  4.1s|     1 |     0 |   498 |     - |   321M |   0 |3535 |1281 |1207 | 119 |  7 |  92 |   0 | 1.711726e+07 | 1.713855e+07 |   0.12%| unknown
  4.2s|     1 |     0 |   561 |     - |   324M |   0 |3535 |1181 |1216 | 128 |  8 |  92 |   0 | 1.711782e+07 | 1.713855e+07 |   0.12%| unknown
  4.3s|     1 |     0 |   586 |     - |   325M |   0 |3535 |1181 |1225 | 137 |  9 |  92 |   0 | 1.711792e+07 | 1.713855e+07 |   0.12%| unknown
  4.5s|     1 |     0 |   702 |     - |   329M |   0 |3535 |1181 |1234 | 146 | 10 |  92 |   0 | 1.711944e+07 | 1.713855e+07 |   0.11%| unknown
  4.5s|     1 |     0 |   733 |     - |   329M |   0 |3535 |1181 |1243 | 155 | 11 |  92 |   0 | 1.711960e+07 | 1.713855e+07 |   0.11%| unknown
  4.6s|     1 |     0 |   849 |     - |   330M |   0 |3535 |1181 |1252 | 164 | 12 |  92 |   0 | 1.712068e+07 | 1.713855e+07 |   0.10%| unknown
  4.7s|     1 |     0 |   916 |     - |   330M |   0 |3535 |1181 |1261 | 173 | 13 |  92 |   0 | 1.712115e+07 | 1.713855e+07 |   0.10%| unknown
  4.7s|     1 |     0 |   916 |     - |   330M |   0 |3535 |1181 |1161 | 173 | 13 |  92 |   0 | 1.712115e+07 | 1.713855e+07 |   0.10%| unknown
  4.7s|     1 |     0 |   939 |     - |   330M |   0 |3535 |1081 |1170 | 182 | 14 |  92 |   0 | 1.712119e+07 | 1.713855e+07 |   0.10%| unknown
  4.8s|     1 |     0 |  1007 |     - |   330M |   0 |3535 |1081 |1179 | 191 | 15 |  92 |   0 | 1.712210e+07 | 1.713855e+07 |   0.10%| unknown
  4.8s|     1 |     0 |  1036 |     - |   330M |   0 |3535 |1081 |1178 | 200 | 16 |  92 |   0 | 1.712214e+07 | 1.713855e+07 |   0.10%| unknown
  4.9s|     1 |     0 |  1088 |     - |   332M |   0 |3535 |1081 |1187 | 209 | 17 |  92 |   0 | 1.712237e+07 | 1.713855e+07 |   0.09%| unknown
  4.9s|     1 |     0 |  1139 |     - |   333M |   0 |3535 |1081 |1195 | 217 | 18 |  92 |   0 | 1.712246e+07 | 1.713855e+07 |   0.09%| unknown
  5.0s|     1 |     0 |  1180 |     - |   333M |   0 |3535 |1081 |1203 | 225 | 19 |  92 |   0 | 1.712254e+07 | 1.713855e+07 |   0.09%| unknown
  5.0s|     1 |     0 |  1211 |     - |   334M |   0 |3535 |1081 |1211 | 233 | 20 |  92 |   0 | 1.712271e+07 | 1.713855e+07 |   0.09%| unknown
 time | node  | left  |LP iter|LP it/n|mem/heur|mdpt |vars |cons |rows |cuts |sepa|confs|strbr|  dualbound   | primalbound  |  gap   | compl. 
  5.1s|     1 |     0 |  1251 |     - |   334M |   0 |3535 |1081 |1219 | 241 | 21 |  92 |   0 | 1.712279e+07 | 1.713855e+07 |   0.09%| unknown
  5.1s|     1 |     0 |  1285 |     - |   334M |   0 |3535 |1081 |1173 | 249 | 22 |  92 |   0 | 1.712284e+07 | 1.713855e+07 |   0.09%| unknown
  5.2s|     1 |     0 |  1313 |     - |   335M |   0 |3535 |1081 |1181 | 257 | 23 |  92 |   0 | 1.712289e+07 | 1.713855e+07 |   0.09%| unknown
  5.2s|     1 |     0 |  1350 |     - |   335M |   0 |3535 |1081 |1189 | 265 | 24 |  92 |   0 | 1.712309e+07 | 1.713855e+07 |   0.09%| unknown
  5.3s|     1 |     0 |  1394 |     - |   335M |   0 |3535 |1081 |1197 | 273 | 25 |  92 |   0 | 1.712319e+07 | 1.713855e+07 |   0.09%| unknown
  5.4s|     1 |     0 |  1437 |     - |   335M |   0 |3535 |1081 |1205 | 281 | 26 |  92 |   0 | 1.712331e+07 | 1.713855e+07 |   0.09%| unknown
  5.4s|     1 |     0 |  1467 |     - |   335M |   0 |3535 |1081 |1213 | 289 | 27 |  92 |   0 | 1.712355e+07 | 1.713855e+07 |   0.09%| unknown
  5.5s|     1 |     0 |  1515 |     - |   335M |   0 |3535 |1081 |1191 | 296 | 28 |  92 |   0 | 1.712364e+07 | 1.713855e+07 |   0.09%| unknown
  5.5s|     1 |     0 |  1539 |     - |   335M |   0 |3535 |1081 |1198 | 303 | 29 |  92 |   0 | 1.712371e+07 | 1.713855e+07 |   0.09%| unknown
  5.6s|     1 |     0 |  1576 |     - |   335M |   0 |3535 |1081 |1204 | 309 | 30 |  92 |   0 | 1.712383e+07 | 1.713855e+07 |   0.09%| unknown
  5.6s|     1 |     0 |  1576 |     - |   335M |   0 |3535 |1081 |1104 | 309 | 30 |  92 |   0 | 1.712383e+07 | 1.713855e+07 |   0.09%| unknown
  5.6s|     1 |     0 |  1604 |     - |   335M |   0 |3535 | 981 |1109 | 314 | 31 |  92 |   0 | 1.712385e+07 | 1.713855e+07 |   0.09%| unknown
r 5.6s|     1 |     0 |  1604 |     - |rounding|   0 |3535 | 981 |1109 | 314 | 31 |  92 |   0 | 1.712385e+07 | 1.713358e+07 |   0.06%| unknown
  5.7s|     1 |     0 |  1631 |     - |   337M |   0 |3535 | 981 |1113 | 318 | 32 |  92 |   0 | 1.712392e+07 | 1.713358e+07 |   0.06%| unknown
  5.7s|     1 |     0 |  1631 |     - |   338M |   0 |3535 | 981 | 714 | 318 | 32 |  92 |   0 | 1.712392e+07 | 1.713358e+07 |   0.06%| unknown
 time | node  | left  |LP iter|LP it/n|mem/heur|mdpt |vars |cons |rows |cuts |sepa|confs|strbr|  dualbound   | primalbound  |  gap   | compl. 
  5.8s|     1 |     0 |  1661 |     - |   337M |   0 |3535 | 582 | 718 | 322 | 33 |  92 |   0 | 1.712405e+07 | 1.713358e+07 |   0.06%| unknown
r 5.8s|     1 |     0 |  1661 |     - |rounding|   0 |3535 | 582 | 718 | 322 | 33 |  92 |   0 | 1.712405e+07 | 1.713352e+07 |   0.06%| unknown
  5.8s|     1 |     0 |  1672 |     - |   339M |   0 |3535 | 582 | 698 | 326 | 34 |  92 |   0 | 1.712406e+07 | 1.713352e+07 |   0.06%| unknown
i 5.8s|     1 |     0 |  1672 |     - |  oneopt|   0 |3535 | 582 | 698 | 326 | 34 |  92 |   0 | 1.712406e+07 | 1.713087e+07 |   0.04%| unknown
  5.9s|     1 |     0 |  1717 |     - |   341M |   0 |3535 | 582 | 705 | 333 | 35 |  92 |   0 | 1.712427e+07 | 1.713087e+07 |   0.04%| unknown
  5.9s|     1 |     0 |  1717 |     - |   341M |   0 |3535 | 582 | 506 | 333 | 35 |  92 |   0 | 1.712427e+07 | 1.713087e+07 |   0.04%| unknown
  5.9s|     1 |     0 |  1750 |     - |   341M |   0 |3535 | 383 | 512 | 339 | 36 |  92 |   0 | 1.712430e+07 | 1.713087e+07 |   0.04%| unknown
  6.0s|     1 |     0 |  1780 |     - |   341M |   0 |3535 | 383 | 518 | 345 | 37 |  92 |   0 | 1.712434e+07 | 1.713087e+07 |   0.04%| unknown
  6.1s|     1 |     0 |  1794 |     - |   341M |   0 |3535 | 383 | 524 | 351 | 38 |  92 |   0 | 1.712437e+07 | 1.713087e+07 |   0.04%| unknown
  6.1s|     1 |     0 |  1825 |     - |   341M |   0 |3535 | 383 | 530 | 357 | 39 |  92 |   0 | 1.712441e+07 | 1.713087e+07 |   0.04%| unknown
  6.2s|     1 |     0 |  1876 |     - |   341M |   0 |3535 | 383 | 506 | 363 | 40 |  92 |   0 | 1.712446e+07 | 1.713087e+07 |   0.04%| unknown
  6.2s|     1 |     0 |  1899 |     - |   342M |   0 |3535 | 383 | 510 | 367 | 41 |  92 |   0 | 1.712447e+07 | 1.713087e+07 |   0.04%| unknown
  6.3s|     1 |     0 |  1916 |     - |   343M |   0 |3535 | 383 | 515 | 372 | 42 |  92 |   0 | 1.712447e+07 | 1.713087e+07 |   0.04%| unknown
  6.3s|     1 |     0 |  1952 |     - |   343M |   0 |3535 | 383 | 520 | 377 | 43 |  92 |   0 | 1.712450e+07 | 1.713087e+07 |   0.04%| unknown
r 6.3s|     1 |     0 |  1952 |     - |rounding|   0 |3535 | 383 | 520 | 377 | 43 |  92 |   0 | 1.712450e+07 | 1.712947e+07 |   0.03%| unknown
 time | node  | left  |LP iter|LP it/n|mem/heur|mdpt |vars |cons |rows |cuts |sepa|confs|strbr|  dualbound   | primalbound  |  gap   | compl. 
  6.4s|     1 |     0 |  1986 |     - |   345M |   0 |3535 | 383 | 525 | 382 | 44 |  92 |   0 | 1.712451e+07 | 1.712947e+07 |   0.03%| unknown
  6.4s|     1 |     0 |  2018 |     - |   346M |   0 |3535 | 383 | 529 | 386 | 45 |  92 |   0 | 1.712454e+07 | 1.712947e+07 |   0.03%| unknown
L 7.2s|     1 |     0 |  2642 |     - |    rens|   0 |3535 | 377 | 529 | 386 | 45 |  92 |   0 | 1.712454e+07 | 1.712633e+07 |   0.01%| unknown
L 7.3s|     1 |     0 |  2642 |     - |    alns|   0 |3535 | 377 | 529 | 386 | 45 |  92 |   0 | 1.712454e+07 | 1.712566e+07 |   0.01%| unknown
L 7.3s|     1 |     0 |  2642 |     - |    alns|   0 |3535 | 377 | 529 | 386 | 45 |  92 |   0 | 1.712454e+07 | 1.712565e+07 |   0.01%| unknown
  7.3s|     1 |     0 |  2642 |     - |   352M |   0 |3535 | 377 | 529 | 386 | 45 |  92 |   0 | 1.712454e+07 | 1.712565e+07 |   0.01%| unknown
  7.3s|     1 |     0 |  2642 |     - |   354M |   0 |3535 | 377 | 329 | 386 | 45 |  92 |   0 | 1.712454e+07 | 1.712565e+07 |   0.01%| unknown
  7.3s|     1 |     0 |  2661 |     - |   354M |   0 |3535 | 177 | 331 | 388 | 46 |  92 |   0 | 1.712458e+07 | 1.712565e+07 |   0.01%| unknown
  7.4s|     1 |     0 |  2661 |     - |   354M |   0 |3535 | 177 | 331 | 388 | 46 |  92 |   0 | 1.712458e+07 | 1.712565e+07 |   0.01%| unknown
  7.4s|     1 |     0 |  2668 |     - |   354M |   0 |3535 | 177 | 332 | 389 | 47 |  92 |   0 | 1.712460e+07 | 1.712565e+07 |   0.01%| unknown
  7.4s|     1 |     0 |  2668 |     - |   354M |   0 |3535 | 177 | 332 | 389 | 47 |  92 |   0 | 1.712460e+07 | 1.712565e+07 |   0.01%| unknown
(run 1, node 1) restarting after 967 global fixings of integer variables

(restart) converted 153 cuts from the global cut pool into linear constraints

presolving:
(round 1, fast)       967 del vars, 92 del conss, 0 add conss, 0 chg bounds, 1 chg sides, 933 chg coeffs, 0 upgd conss, 0 impls, 39 clqs
   (8.1s) running MILP presolver
   (8.1s) MILP presolver found nothing
(round 2, exhaustive) 967 del vars, 102 del conss, 0 add conss, 0 chg bounds, 11 chg sides, 933 chg coeffs, 0 upgd conss, 0 impls, 39 clqs
(round 3, exhaustive) 967 del vars, 102 del conss, 0 add conss, 0 chg bounds, 11 chg sides, 933 chg coeffs, 143 upgd conss, 0 impls, 39 clqs
(round 4, exhaustive) 974 del vars, 102 del conss, 0 add conss, 0 chg bounds, 11 chg sides, 933 chg coeffs, 143 upgd conss, 0 impls, 39 clqs
(round 5, fast)       974 del vars, 102 del conss, 0 add conss, 0 chg bounds, 11 chg sides, 940 chg coeffs, 143 upgd conss, 0 impls, 39 clqs
presolving (6 rounds: 6 fast, 4 medium, 4 exhaustive):
 974 deleted vars, 102 deleted constraints, 0 added constraints, 0 tightened bounds, 0 added holes, 11 changed sides, 940 changed coefficients
 0 implications, 39 cliques
presolved problem has 2561 variables (2561 bin, 0 int, 0 impl, 0 cont) and 228 constraints
    176 constraints of type <knapsack>
     52 constraints of type <logicor>
Presolving Time: 3.38
transformed 13/15 original solutions to the transformed problem space

 time | node  | left  |LP iter|LP it/n|mem/heur|mdpt |vars |cons |rows |cuts |sepa|confs|strbr|  dualbound   | primalbound  |  gap   | compl. 
  8.6s|     1 |     0 |  2993 |     - |   372M |   0 |2561 | 228 | 228 |   0 |  0 |  92 |   0 | 1.712460e+07 | 1.712565e+07 |   0.01%| unknown
  8.7s|     1 |     0 |  3083 |     - |   373M |   0 |2561 | 228 | 260 |  32 |  1 |  92 |   0 | 1.712460e+07 | 1.712565e+07 |   0.01%| unknown
  8.8s|     1 |     0 |  3221 |     - |   373M |   0 |2561 | 228 | 292 |  64 |  2 |  92 |   0 | 1.712460e+07 | 1.712565e+07 |   0.01%| unknown
  8.9s|     1 |     0 |  3291 |     - |   375M |   0 |2561 | 228 | 320 |  92 |  3 |  92 |   0 | 1.712460e+07 | 1.712565e+07 |   0.01%| unknown
  9.0s|     1 |     0 |  3412 |     - |   375M |   0 |2561 | 228 | 345 | 117 |  4 |  92 |   0 | 1.712460e+07 | 1.712565e+07 |   0.01%| unknown
  9.1s|     1 |     0 |  3501 |     - |   376M |   0 |2561 | 228 | 368 | 140 |  5 |  92 |   0 | 1.712460e+07 | 1.712565e+07 |   0.01%| unknown
  9.2s|     1 |     0 |  3573 |     - |   376M |   0 |2561 | 228 | 390 | 162 |  6 |  92 |   0 | 1.712460e+07 | 1.712565e+07 |   0.01%| unknown
  9.4s|     1 |     0 |  3668 |     - |   380M |   0 |2561 | 228 | 407 | 179 |  7 |  92 |   0 | 1.712460e+07 | 1.712565e+07 |   0.01%| unknown
  9.5s|     1 |     0 |  3756 |     - |   380M |   0 |2561 | 228 | 422 | 194 |  8 |  92 |   0 | 1.712460e+07 | 1.712565e+07 |   0.01%| unknown
  9.7s|     1 |     0 |  3823 |     - |   383M |   0 |2561 | 228 | 435 | 207 |  9 |  92 |   0 | 1.712460e+07 | 1.712565e+07 |   0.01%| unknown
  9.8s|     1 |     0 |  3912 |     - |   387M |   0 |2561 | 228 | 447 | 219 | 10 |  92 |   0 | 1.712460e+07 | 1.712565e+07 |   0.01%| unknown
  9.9s|     1 |     0 |  3995 |     - |   387M |   0 |2561 | 228 | 458 | 230 | 11 |  92 |   0 | 1.712460e+07 | 1.712565e+07 |   0.01%| unknown
 10.0s|     1 |     0 |  4088 |     - |   387M |   0 |2561 | 228 | 404 | 240 | 12 |  92 |   0 | 1.712460e+07 | 1.712565e+07 |   0.01%| unknown
 10.0s|     1 |     0 |  4128 |     - |   387M |   0 |2561 | 228 | 413 | 249 | 13 |  92 |   0 | 1.712460e+07 | 1.712565e+07 |   0.01%| unknown
 10.1s|     1 |     0 |  4158 |     - |   387M |   0 |2561 | 228 | 420 | 256 | 14 |  92 |   0 | 1.712460e+07 | 1.712565e+07 |   0.01%| unknown
 time | node  | left  |LP iter|LP it/n|mem/heur|mdpt |vars |cons |rows |cuts |sepa|confs|strbr|  dualbound   | primalbound  |  gap   | compl. 
 10.1s|     1 |     0 |  4202 |     - |   387M |   0 |2561 | 228 | 427 | 263 | 15 |  92 |   0 | 1.712460e+07 | 1.712565e+07 |   0.01%| unknown
 10.2s|     1 |     0 |  4250 |     - |   387M |   0 |2561 | 228 | 432 | 268 | 16 |  92 |   0 | 1.712460e+07 | 1.712565e+07 |   0.01%| unknown
 10.3s|     1 |     0 |  4344 |     - |   387M |   0 |2561 | 228 | 439 | 275 | 17 |  92 |   0 | 1.712460e+07 | 1.712565e+07 |   0.01%| unknown
 10.3s|     1 |     0 |  4360 |     - |   388M |   0 |2561 | 228 | 376 | 279 | 18 |  92 |   0 | 1.712460e+07 | 1.712565e+07 |   0.01%| unknown
 10.4s|     1 |     0 |  4378 |     - |   388M |   0 |2561 | 228 | 380 | 283 | 19 |  92 |   0 | 1.712460e+07 | 1.712565e+07 |   0.01%| unknown
 10.4s|     1 |     0 |  4413 |     - |   388M |   0 |2561 | 228 | 384 | 287 | 20 |  92 |   0 | 1.712460e+07 | 1.712565e+07 |   0.01%| unknown
 10.5s|     1 |     0 |  4555 |     - |   388M |   0 |2561 | 228 | 389 | 292 | 21 |  92 |   0 | 1.712460e+07 | 1.712565e+07 |   0.01%| unknown
 10.5s|     1 |     0 |  4590 |     - |   388M |   0 |2561 | 228 | 393 | 296 | 22 |  92 |   0 | 1.712460e+07 | 1.712565e+07 |   0.01%| unknown
 10.5s|     1 |     0 |  4613 |     - |   388M |   0 |2561 | 228 | 397 | 300 | 23 |  92 |   0 | 1.712460e+07 | 1.712565e+07 |   0.01%| unknown
 10.6s|     1 |     0 |  4643 |     - |   388M |   0 |2561 | 228 | 350 | 304 | 24 |  92 |   0 | 1.712460e+07 | 1.712565e+07 |   0.01%| unknown
 10.6s|     1 |     0 |  4656 |     - |   388M |   0 |2561 | 228 | 354 | 308 | 25 |  92 |   0 | 1.712460e+07 | 1.712565e+07 |   0.01%| unknown
 10.7s|     1 |     0 |  4674 |     - |   388M |   0 |2561 | 228 | 357 | 311 | 26 |  92 |   0 | 1.712460e+07 | 1.712565e+07 |   0.01%| unknown
 10.7s|     1 |     0 |  4703 |     - |   388M |   0 |2561 | 228 | 361 | 315 | 27 |  92 |   0 | 1.712460e+07 | 1.712565e+07 |   0.01%| unknown
 10.8s|     1 |     0 |  4738 |     - |   388M |   0 |2561 | 228 | 364 | 318 | 28 |  92 |   0 | 1.712460e+07 | 1.712565e+07 |   0.01%| unknown
 10.8s|     1 |     0 |  4743 |     - |   388M |   0 |2561 | 228 | 367 | 321 | 29 |  92 |   0 | 1.712460e+07 | 1.712565e+07 |   0.01%| unknown
 time | node  | left  |LP iter|LP it/n|mem/heur|mdpt |vars |cons |rows |cuts |sepa|confs|strbr|  dualbound   | primalbound  |  gap   | compl. 
 10.8s|     1 |     0 |  4752 |     - |   388M |   0 |2561 | 228 | 333 | 325 | 30 |  92 |   0 | 1.712460e+07 | 1.712565e+07 |   0.01%| unknown
 10.9s|     1 |     0 |  4791 |     - |   388M |   0 |2561 | 228 | 337 | 329 | 31 |  92 |   0 | 1.712460e+07 | 1.712565e+07 |   0.01%| unknown
 10.9s|     1 |     0 |  4811 |     - |   388M |   0 |2561 | 228 | 341 | 333 | 32 |  92 |   0 | 1.712460e+07 | 1.712565e+07 |   0.01%| unknown
 11.0s|     1 |     0 |  4830 |     - |   388M |   0 |2561 | 228 | 345 | 337 | 33 |  92 |   0 | 1.712460e+07 | 1.712565e+07 |   0.01%| unknown
 11.0s|     1 |     0 |  4839 |     - |   388M |   0 |2561 | 228 | 349 | 341 | 34 |  92 |   0 | 1.712460e+07 | 1.712565e+07 |   0.01%| unknown
 11.1s|     1 |     0 |  4881 |     - |   388M |   0 |2561 | 228 | 353 | 345 | 35 |  92 |   0 | 1.712460e+07 | 1.712565e+07 |   0.01%| unknown
 11.1s|     1 |     0 |  4931 |     - |   388M |   0 |2561 | 228 | 337 | 349 | 36 |  92 |   0 | 1.712460e+07 | 1.712565e+07 |   0.01%| unknown
 11.2s|     1 |     0 |  4965 |     - |   388M |   0 |2561 | 228 | 341 | 353 | 37 |  92 |   0 | 1.712460e+07 | 1.712565e+07 |   0.01%| unknown
 11.2s|     1 |     0 |  4985 |     - |   388M |   0 |2561 | 228 | 346 | 358 | 38 |  92 |   0 | 1.712460e+07 | 1.712565e+07 |   0.01%| unknown
 12.0s|     1 |     2 |  5599 |     - |   389M |   0 |2561 | 233 | 346 | 358 | 38 |  97 |  40 | 1.712460e+07 | 1.712565e+07 |   0.01%| unknown
 20.3s|   100 |    93 | 13209 |  88.5 |   503M |  22 |2561 | 249 | 303 | 425 |  1 | 113 | 596 | 1.712460e+07 | 1.712565e+07 |   0.01%| unknown
 22.5s|   200 |   159 | 16679 |  61.6 |   519M |  22 |2561 | 267 | 302 | 506 |  2 | 131 | 720 | 1.712471e+07 | 1.712565e+07 |   0.01%|  14.65%
 24.5s|   300 |   217 | 18566 |  47.4 |   527M |  31 |2561 | 293 | 303 | 567 |  2 | 157 | 809 | 1.712480e+07 | 1.712565e+07 |   0.00%|  17.98%
 26.5s|   400 |   253 | 20134 |  39.4 |   529M |  32 |2561 | 307 | 308 | 623 |  1 | 171 | 847 | 1.712489e+07 | 1.712565e+07 |   0.00%|  20.68%
 27.5s|   500 |   313 | 21333 |  34.0 |   531M |  32 |2561 | 315 | 306 | 663 |  1 | 179 | 880 | 1.712491e+07 | 1.712565e+07 |   0.00%|  21.32%
 time | node  | left  |LP iter|LP it/n|mem/heur|mdpt |vars |cons |rows |cuts |sepa|confs|strbr|  dualbound   | primalbound  |  gap   | compl. 
*28.6s|   593 |   286 | 22164 |  30.0 |    LP  |  40 |2561 | 324 | 313 | 691 |  3 | 188 | 898 | 1.712491e+07 | 1.712556e+07 |   0.00%|  21.45%
*28.6s|   594 |   280 | 22174 |  30.0 |    LP  |  40 |2561 | 324 | 310 | 691 |  2 | 188 | 898 | 1.712491e+07 | 1.712556e+07 |   0.00%|  21.52%
 28.6s|   600 |   280 | 22226 |  29.8 |   526M |  40 |2561 | 324 | 307 | 694 |  1 | 188 | 898 | 1.712491e+07 | 1.712556e+07 |   0.00%|  21.67%
 29.7s|   700 |   272 | 23327 |  27.1 |   527M |  40 |2561 | 332 | 301 | 752 |  0 | 196 | 903 | 1.712495e+07 | 1.712556e+07 |   0.00%|  26.13%
L30.2s|   794 |   248 | 23822 |  24.5 |    rins|  40 |2561 | 342 | 309 | 755 |  1 | 206 | 907 | 1.712495e+07 | 1.712553e+07 |   0.00%|  26.83%
 30.2s|   800 |   246 | 23833 |  24.3 |   528M |  40 |2561 | 342 | 308 | 755 |  0 | 206 | 907 | 1.712495e+07 | 1.712553e+07 |   0.00%|  26.90%
 31.4s|   900 |   262 | 24897 |  22.8 |   529M |  40 |2561 | 347 | 306 | 774 |  2 | 211 | 930 | 1.712497e+07 | 1.712553e+07 |   0.00%|  28.66%
L32.3s|   994 |    50 | 25857 |  21.6 |crossove|  40 |2561 | 347 | 308 | 780 |  2 | 213 | 936 | 1.712499e+07 | 1.712526e+07 |   0.00%|  44.50%
 32.4s|  1000 |    52 | 25920 |  21.6 |   530M |  40 |2561 | 347 | 307 | 780 |  0 | 213 | 936 | 1.712499e+07 | 1.712526e+07 |   0.00%|  44.80%
 34.2s|  1100 |    26 | 27283 |  20.8 |   534M |  40 |2561 | 353 | 309 | 825 |  0 | 355 | 962 | 1.712501e+07 | 1.712526e+07 |   0.00%|  70.43%
*34.8s|  1174 |    28 | 27702 |  19.9 |    LP  |  40 |2561 | 353 | 308 | 835 |  1 | 355 | 967 | 1.712501e+07 | 1.712525e+07 |   0.00%|  72.00%
 35.0s|  1200 |    20 | 27898 |  19.6 |   535M |  40 |2561 | 351 | 297 | 835 |  0 | 356 | 972 | 1.712503e+07 | 1.712525e+07 |   0.00%|  76.56%

SCIP Status        : problem is solved [optimal solution found]
Solving Time (sec) : 35.43
Solving Nodes      : 1252 (total of 1253 nodes in 2 runs)
Primal Bound       : +1.71252450681236e+07 (361 solutions)
Dual Bound         : +1.71252450681236e+07
Gap                : 0.00 %
Solve Status: optimal
Solve Time: 35.47 seconds
Objective Value: 17125245.07
